c Sudoku solution
p cnf 729 0
132 0
247 0
265 0
314 0
325 0
415 0
438 0
489 0
524 0
536 0
541 0
633 0
642 0
669 0
519 0
422 0
696 0
761 0
786 0
793 0
818 0
834 0
853 0
897 0
935 0
944 0
774 0
957 0
978 0
228 0
239 0
331 0
737 0
712 0
729 0
849 0
999 0
745 0
758 0
555 0
654 0
456 0
443 0
467 0
568 0
494 0
471 0
592 0
688 0
675 0
164 0
363 0
872 0
981 0
885 0
821 0
866 0
962 0
611 0
627 0
117 0
284 0
382 0
291 0
377 0
151 0
252 0
359 0
346 0
148 0
398 0
573 0
587 0
276 0
183 0
195 0
179 0
126 0
213 0
916 0
923 0
